NAME : 10_3_3_2_(49).dat
COMMENT : Henke, Speranza, Wäscher, 2015
TYPE : MCVRP
DIMENSION : 11
EDGE_WEIGHT_TYPE : DISTANCE_MATRIX
CAPACITY : 1000
VEHICLES : 2
PRODUCT TYPES : 3
COMPARTMENTS : 3
NODE_COORD_SECTION
1 50 50
2 37.38 68.06
3 13.52 53.61
4 28.54 69.71
5 12.98 86.62
6 29.13 92.26
7 85.81 51.03
8 42.07 44.39
9 62.1 24.29
10 38.65 31.16
11 95.49 24.33
DEMAND_SECTION
1 0 0 0
2 0 104 78
3 110 4 0
4 14 84 0
5 129 1 0
6 151 38 0
7 41 52 0
8 0 39 10
9 107 0 112
10 0 19 60
11 98 49 0
DEPOT_SECTION
1
EOF